min: c;

c = 4.68163649282256 * u3_t10_h0 + 3.35941386583183 * u3_t10_h1 + 3.32427010274222 * u3_t4_h2 + 3.32427010274222 * u3_t10_h2 + 3.47488834944857 * u3_t4_h3 + 3.47488834944857 * u3_t10_h3 + 3.66229909806977 * u3_t4_h4 + 3.66229909806977 * u3_t10_h4 + 3.23576560529748 * u3_t4_h5 + 3.23576560529748 * u3_t10_h5 + 3.57135646700725 * u3_t4_h6 + 3.57135646700725 * u3_t10_h6 + 3.6540916986923 * u3_t4_h7 + 3.6540916986923 * u3_t9_h7 + 3.6540916986923 * u3_t10_h7 + 5.01082579597824 * u3_t4_h8 + 5.01082579597824 * u3_t9_h8 + 4.81437261931057 * u3_t4_h9 + 4.81437261931057 * u3_t9_h9 + 5.50655696179536 * u3_t4_h10 + 5.50655696179536 * u3_t6_h10 + 5.50655696179536 * u3_t9_h10 + 4.30532398455938 * u3_t3_h11 + 4.30532398455938 * u3_t4_h11 + 4.30532398455938 * u3_t6_h11 + 4.30532398455938 * u3_t9_h11 + 5.84725104971565 * u3_t3_h12 + 5.84725104971565 * u3_t4_h12 + 5.84725104971565 * u3_t6_h12 + 5.84725104971565 * u3_t9_h12 + 4.31038989729462 * u3_t3_h13 + 4.31038989729462 * u3_t4_h13 + 4.31038989729462 * u3_t5_h13 + 4.31038989729462 * u3_t6_h13 + 4.31038989729462 * u3_t9_h13 + 4.95487036867434 * u3_t3_h14 + 4.95487036867434 * u3_t4_h14 + 4.95487036867434 * u3_t5_h14 + 4.95487036867434 * u3_t6_h14 + 4.95487036867434 * u3_t9_h14 + 6.33427204049809 * u3_t2_h15 + 6.33427204049809 * u3_t3_h15 + 6.33427204049809 * u3_t4_h15 + 6.33427204049809 * u3_t5_h15 + 6.33427204049809 * u3_t6_h15 + 6.33427204049809 * u3_t9_h15 + 5.86110680161772 * u3_t2_h16 + 5.86110680161772 * u3_t4_h16 + 5.86110680161772 * u3_t5_h16 + 5.86110680161772 * u3_t6_h16 + 5.86110680161772 * u3_t9_h16 + 5.88678624909748 * u3_t2_h17 + 5.88678624909748 * u3_t4_h17 + 5.88678624909748 * u3_t6_h17 + 5.88678624909748 * u3_t9_h17 + 6.32435795812129 * u3_t2_h18 + 6.32435795812129 * u3_t6_h18 + 6.32435795812129 * u3_t9_h18 + 5.86814685315291 * u3_t2_h19 + 5.86814685315291 * u3_t9_h19 + 5.47355172862004 * u3_t1_h20 + 5.47355172862004 * u3_t2_h20 + 5.47355172862004 * u3_t8_h20 + 5.47355172862004 * u3_t9_h20 + 5.5935682483188 * u3_t1_h21 + 5.5935682483188 * u3_t2_h21 + 5.5935682483188 * u3_t7_h21 + 5.5935682483188 * u3_t8_h21 + 5.5935682483188 * u3_t9_h21 + 5.89200502972277 * u3_t1_h22 + 5.89200502972277 * u3_t7_h22 + 5.89200502972277 * u3_t8_h22 + 4.96980910226514 * u3_t1_h23 + 4.96980910226514 * u3_t7_h23 + 4.96980910226514 * u3_t8_h23;
0 <= u3_t1_h20 <= 1;
0 <= u3_t1_h21 <= 1;
0 <= u3_t1_h22 <= 1;
0 <= u3_t1_h23 <= 1;
u3_t1_h20 + u3_t1_h21 + u3_t1_h22 + u3_t1_h23 = 2;
0 <= u3_t2_h15 <= 1;
0 <= u3_t2_h16 <= 1;
0 <= u3_t2_h17 <= 1;
0 <= u3_t2_h18 <= 1;
0 <= u3_t2_h19 <= 1;
0 <= u3_t2_h20 <= 1;
0 <= u3_t2_h21 <= 1;
u3_t2_h15 + u3_t2_h16 + u3_t2_h17 + u3_t2_h18 + u3_t2_h19 + u3_t2_h20 + u3_t2_h21 = 3;
0 <= u3_t3_h11 <= 1;
0 <= u3_t3_h12 <= 1;
0 <= u3_t3_h13 <= 1;
0 <= u3_t3_h14 <= 1;
0 <= u3_t3_h15 <= 1;
u3_t3_h11 + u3_t3_h12 + u3_t3_h13 + u3_t3_h14 + u3_t3_h15 = 2;
0 <= u3_t4_h2 <= 1;
0 <= u3_t4_h3 <= 1;
0 <= u3_t4_h4 <= 1;
0 <= u3_t4_h5 <= 1;
0 <= u3_t4_h6 <= 1;
0 <= u3_t4_h7 <= 1;
0 <= u3_t4_h8 <= 1;
0 <= u3_t4_h9 <= 1;
0 <= u3_t4_h10 <= 1;
0 <= u3_t4_h11 <= 1;
0 <= u3_t4_h12 <= 1;
0 <= u3_t4_h13 <= 1;
0 <= u3_t4_h14 <= 1;
0 <= u3_t4_h15 <= 1;
0 <= u3_t4_h16 <= 1;
0 <= u3_t4_h17 <= 1;
u3_t4_h2 + u3_t4_h3 + u3_t4_h4 + u3_t4_h5 + u3_t4_h6 + u3_t4_h7 + u3_t4_h8 + u3_t4_h9 + u3_t4_h10 + u3_t4_h11 + u3_t4_h12 + u3_t4_h13 + u3_t4_h14 + u3_t4_h15 + u3_t4_h16 + u3_t4_h17 = 3;
0 <= u3_t5_h13 <= 1;
0 <= u3_t5_h14 <= 1;
0 <= u3_t5_h15 <= 1;
0 <= u3_t5_h16 <= 1;
u3_t5_h13 + u3_t5_h14 + u3_t5_h15 + u3_t5_h16 = 2;
0 <= u3_t6_h10 <= 1;
0 <= u3_t6_h11 <= 1;
0 <= u3_t6_h12 <= 1;
0 <= u3_t6_h13 <= 1;
0 <= u3_t6_h14 <= 1;
0 <= u3_t6_h15 <= 1;
0 <= u3_t6_h16 <= 1;
0 <= u3_t6_h17 <= 1;
0 <= u3_t6_h18 <= 1;
u3_t6_h10 + u3_t6_h11 + u3_t6_h12 + u3_t6_h13 + u3_t6_h14 + u3_t6_h15 + u3_t6_h16 + u3_t6_h17 + u3_t6_h18 = 2;
0 <= u3_t7_h21 <= 1;
0 <= u3_t7_h22 <= 1;
0 <= u3_t7_h23 <= 1;
u3_t7_h21 + u3_t7_h22 + u3_t7_h23 = 2;
0 <= u3_t8_h20 <= 1;
0 <= u3_t8_h21 <= 1;
0 <= u3_t8_h22 <= 1;
0 <= u3_t8_h23 <= 1;
u3_t8_h20 + u3_t8_h21 + u3_t8_h22 + u3_t8_h23 = 1;
0 <= u3_t9_h7 <= 1;
0 <= u3_t9_h8 <= 1;
0 <= u3_t9_h9 <= 1;
0 <= u3_t9_h10 <= 1;
0 <= u3_t9_h11 <= 1;
0 <= u3_t9_h12 <= 1;
0 <= u3_t9_h13 <= 1;
0 <= u3_t9_h14 <= 1;
0 <= u3_t9_h15 <= 1;
0 <= u3_t9_h16 <= 1;
0 <= u3_t9_h17 <= 1;
0 <= u3_t9_h18 <= 1;
0 <= u3_t9_h19 <= 1;
0 <= u3_t9_h20 <= 1;
0 <= u3_t9_h21 <= 1;
u3_t9_h7 + u3_t9_h8 + u3_t9_h9 + u3_t9_h10 + u3_t9_h11 + u3_t9_h12 + u3_t9_h13 + u3_t9_h14 + u3_t9_h15 + u3_t9_h16 + u3_t9_h17 + u3_t9_h18 + u3_t9_h19 + u3_t9_h20 + u3_t9_h21 = 2;
0 <= u3_t10_h0 <= 1;
0 <= u3_t10_h1 <= 1;
0 <= u3_t10_h2 <= 1;
0 <= u3_t10_h3 <= 1;
0 <= u3_t10_h4 <= 1;
0 <= u3_t10_h5 <= 1;
0 <= u3_t10_h6 <= 1;
0 <= u3_t10_h7 <= 1;
u3_t10_h0 + u3_t10_h1 + u3_t10_h2 + u3_t10_h3 + u3_t10_h4 + u3_t10_h5 + u3_t10_h6 + u3_t10_h7 = 3;
